TYPE : Vertex Cover
DIMENSION: 25
EDGE_DATA_SECTION:
0 18
0 19
0 20
0 21
0 23
0 24
1 5
2 3
2 19
2 20
3 11
3 16
3 20
3 21
3 24
4 6
5 9
5 13
5 17
5 19
5 21
6 10
6 12
6 20
6 23
7 12
7 13
7 15
7 16
7 19
7 23
8 19
8 22
9 10
9 11
9 13
9 15
9 23
11 13
11 14
11 19
12 20
12 23
13 14
13 21
13 23
14 15
14 19
15 19
15 22
16 20
16 21
16 23
16 24
17 24
18 19
19 24
20 21
23 24
-1
VERTEX_DEGREE:
6.0 1.0 3.0 6.0 1.0 6.0 5.0 6.0 2.0 6.0 2.0 5.0 4.0 7.0 4.0 5.0 6.0 2.0 2.0 10.0 7.0 6.0 2.0 8.0 6.0
VERTEX_COVER:
0 3 5 6 7 9 13 14 16 19 20 22 23 24
EOF
